c Random 3-CNF over 30 variables and 90 clauses
c Generated with `cnfgen`
c (C) 2012-2016 Massimo Lauria <lauria.massimo@gmail.com>
c https://massimolauria.github.io/cnfgen
c
c COMMAND LINE: cnfgen --output tmp-3-30-90.dimacs --output-format dimacs randkcnf 3 30 90
c
c sdimacs generated by gen-sdimacs
c
p cnf 30 90
r 0.5 1 2 3 4 5 6 7 8 9 10 11 12 13 14 15 0
e  16 17 18 19 20 21 22 23 24 25 26 27 28 29 30 0
18 -24 27 0
-14 21 -24 0
17 -19 -28 0
2 -20 25 0
4 6 -18 0
-3 -6 -28 0
-14 15 -21 0
-9 12 21 0
-6 7 -29 0
-2 9 30 0
4 -8 23 0
-9 -11 -14 0
-4 -7 -17 0
15 -17 23 0
16 -17 29 0
2 -5 25 0
13 -16 18 0
-6 13 -23 0
-22 25 28 0
-12 -23 24 0
13 -14 25 0
-10 12 29 0
7 12 -14 0
-9 18 -21 0
-2 -9 18 0
-9 16 29 0
5 14 -22 0
2 -18 -23 0
2 7 -13 0
11 -21 -27 0
12 -14 -29 0
-18 19 -22 0
-6 -16 18 0
-3 -21 28 0
12 18 -28 0
-2 16 -25 0
11 19 -27 0
-18 25 -28 0
10 -15 -30 0
4 -6 -23 0
5 18 -24 0
-1 10 -23 0
-3 13 22 0
-14 -16 -28 0
-17 -23 -26 0
-8 -10 -27 0
11 -27 -28 0
-1 -9 -11 0
-7 9 -14 0
10 -11 28 0
1 -11 -27 0
-11 12 -24 0
-10 -15 28 0
-22 -26 28 0
-13 29 30 0
-3 -13 -26 0
-4 6 11 0
8 9 -22 0
-4 -9 -12 0
-14 17 -20 0
8 10 -28 0
14 18 22 0
-6 -11 -12 0
2 -7 27 0
-13 -27 29 0
-16 22 25 0
-4 -5 -10 0
11 -17 29 0
5 10 11 0
-6 -20 -27 0
-11 -12 -27 0
-14 15 28 0
-10 17 -22 0
15 -16 30 0
2 -22 29 0
-8 11 -24 0
-19 -22 -30 0
1 -15 -18 0
5 11 -18 0
-2 -20 -25 0
5 9 30 0
5 -14 22 0
-5 20 22 0
-4 -12 -25 0
-8 16 -29 0
-3 27 30 0
-8 -12 -19 0
13 -17 29 0
-2 13 14 0
1 -14 18 0
